!! n20w201    16.75 391

CUST NO. XCOORD. YCOORD. DEMAND [READY TIME] [DUE DATE] [SERVICE TIME]

1    16    23   0      0       408       0
2    22     4   0     62        68       0
3    12     6   0    181       205       0
4    47    38   0    306       324       0
5    11    29   0    214       217       0
6    25     5   0     51        61       0
7    22    31   0    102       129       0
8     0    16   0    175       186       0
9    37     3   0    250       263       0
10    31    19   0      3        23       0
11    38    12   0     21        49       0
12    36     1   0     79        90       0
13    38    14   0     78        96       0
14     4    50   0    140       154       0
15     5     4   0    354       386       0
16    16     3   0     42        63       0
17    25    25   0      2        13       0
18    31    15   0     24        42       0
19    36    14   0     20        33       0
20    28    16   0      9        21       0
21    20    35   0    275       300       0
999     0     0   0      0         0       0